750
[76,77,78,79,86,89,91,92,95,96,97,99,101,104,106,108,110,112,113,115,118,121,122,123,124,128,130,131,132,133,134,135,136,137,138,139,140,142,143,144,145,146,148,150,151,152,155,157,158,162,163,164,167,168,169,170,173,175,176,177,179,180,183,184,186,190,192,193,194,195,197,198,201,202,205,207,214,215,216,217,218,219,221,222,223,227,230,232,234,237,239,241,245,246,247,250,252,254,255,256,257,258,261,263,266,267,269,271,274,276,279,280,281,282,284,285,287,288,289,291,293,294,295,296,297,298,300,301,302,304,305,306,307,308,310,313,314,315,318,321,323,324,325,326,327,329,331,332,340,341,342,345,346,347,348,349,351,352,355,357,359,360,361,362,363,364,365,368,371,372,373,375,376,378,380,381,383,386,389,390,392,393,397,402,403,407,408,409,411,414,416,417,418,419,422,424,425,430,434,440,443,444,445,446,447,449,450,451,452,453,454,458,459,460,461,462,464,465,468,469,471,472,474,476,478,479,481,482,483,485,486,487,488,489,490,497,498,499,501,503,507,509,511,512,513,514,516,518,519,521,523,526,527,528,532,534,535,536,537,542,543,544,545,551,553,554,555,556,557,559,560,562,563,565,566,569,570,571,573,575,577,579,580,581,586,590,593,594,595,596,598,600]
[2,1,1,2,1,1,1,1,1,1,1,1,2,1,1,1,2,1,1,1,1,1,1,2,1,1,1,2,1,3,1,1,2,1,1,2,1,1,1,1,1,2,1,1,1,2,2,2,2,1,2,2,1,1,2,1,1,1,2,2,1,1,1,2,1,1,1,1,1,2,1,1,2,1,2,2,1,1,2,1,2,1,3,2,2,1,1,1,2,1,2,1,1,2,1,1,2,1,1,1,2,1,1,1,1,2,1,1,1,1,2,1,1,1,2,1,1,1,2,1,1,1,1,2,1,2,1,1,1,1,1,2,1,2,1,1,2,1,2,1,1,2,1,1,1,1,1,2,1,1,1,1,2,2,1,1,1,2,1,4,1,1,3,1,1,1,1,1,1,1,1,1,2,1,1,1,1,1,2,1,1,1,1,3,1,1,2,1,1,2,1,1,1,2,1,2,2,2,1,1,1,1,2,2,1,1,1,1,1,3,2,1,1,1,1,3,1,1,3,1,1,3,3,1,1,1,4,2,1,3,1,1,2,2,1,2,2,1,2,1,2,1,2,1,1,1,1,1,2,1,1,1,1,2,1,2,1,1,2,1,2,1,1,1,1,1,3,1,2,1,1,2,2,1,1,1,1,1,1,1,2,2,1,1,1,2,1,2,3,1,1,1]
